
        $ From http://www.csplib.org/Problems/prob009/data/helmut.pdf
        $ Problem number 35
        $ Sequence length : 24
        language ESSENCE' 1.0
        letting sizemaster be 290
        letting sizes be sequence(2,3,8,9,11,12,14,17,21,30,31,33,40,42,45,48,59,61,63,65,82,84,124,166)
        